27 27
21
3 3   6 5 
4 3   13 21
5 3   13 18
6 3   18 17
7 3   9 4 
3 8   20 5 
9 3   17 21
10 3   0 23
3 11  23 2 
12 3   9 24
3 19  0 4 
3 20  10 7 
3 21  24 0 
3 4   23 2 
4 4   14 14
4 6   16 4 
4 7   15 10
8 4   16 13
4 14  6 8 
4 19  2 3 
20 4   1 0 
